(set-logic HORN)
(declare-fun assign_166_22_5_abs0 (Int Int Int Int) Bool)
(declare-fun assert_157_21_5_abs0 (Int Int Int Int) Bool)
(declare-fun assert_142_20_12_abs0 (Int Int Int Int) Bool)
(declare-fun while_169_19_1_abs0 (Int Int Int Int) Bool)
(declare-fun assign_107_18_1_abs0 (Int Int Int Int) Bool)
(declare-fun assign_101_17_1_abs0 (Int Int Int Int) Bool)
(declare-fun assign_92_15_5_abs0 (Int Int Int Int) Bool)
(declare-fun assert_83_14_12_abs0 (Int Int Int Int) Bool)
(declare-fun while_95_13_1_abs0 (Int Int Int Int) Bool)
(declare-fun assign_39_12_1_abs0 (Int Int Int Int) Bool)
(declare-fun end_abs0 (Int Int Int Int) Bool)
(declare-fun start_abs0 (Int Int Int Int) Bool)
(assert (forall ((source (Array Int Int)) (l Int) (i Int) (vabs_f_f Int)) (start_abs0 vabs_f_f (select source vabs_f_f) l i)))
(assert (forall ((i Int) (l Int) (source (Array Int Int)) (vabs_0_f_f Int)) (=> (start_abs0 vabs_0_f_f (select source vabs_0_f_f) l i) (assign_39_12_1_abs0 vabs_0_f_f (select source vabs_0_f_f) l i))))
(assert (forall ((i Int) (l Int) (source (Array Int Int)) (vabs_0_f_f Int)) (=> (assign_39_12_1_abs0 vabs_0_f_f (select source vabs_0_f_f) l i) (while_95_13_1_abs0 vabs_0_f_f (select source vabs_0_f_f) l 0))))
(assert (forall ((source (Array Int Int)) (l Int) (i Int) (vabs_0_f_f Int)) (=> (and (while_95_13_1_abs0 i (select source i) l i) (while_95_13_1_abs0 vabs_0_f_f (select source vabs_0_f_f) l i) (not (= (select source i) 0))) (assert_83_14_12_abs0 vabs_0_f_f (select source vabs_0_f_f) l i))))
(assert (forall ((source (Array Int Int)) (l Int) (i Int) (vabs_0_f_f Int)) (=> (and (while_95_13_1_abs0 i (select source i) l i) (while_95_13_1_abs0 vabs_0_f_f (select source vabs_0_f_f) l i) (not (not (= (select source i) 0)))) (assign_101_17_1_abs0 vabs_0_f_f (select source vabs_0_f_f) l i))))
(assert (forall ((k Int) (i Int) (l Int) (source (Array Int Int))) (=> (and (assert_83_14_12_abs0 k (select source k) l i) (<= 0 k) (< k i)) (not (= (select source k) 0)))))
(assert (forall ((i Int) (l Int) (source (Array Int Int)) (vabs_0_f_f Int)) (=> (assert_83_14_12_abs0 vabs_0_f_f (select source vabs_0_f_f) l i) (assign_92_15_5_abs0 vabs_0_f_f (select source vabs_0_f_f) l i))))
(assert (forall ((i Int) (l Int) (source (Array Int Int)) (vabs_0_f_f Int)) (=> (assign_92_15_5_abs0 vabs_0_f_f (select source vabs_0_f_f) l i) (while_95_13_1_abs0 vabs_0_f_f (select source vabs_0_f_f) l (+ i 1)))))
(assert (forall ((i Int) (l Int) (source (Array Int Int)) (vabs_0_f_f Int)) (=> (assign_101_17_1_abs0 vabs_0_f_f (select source vabs_0_f_f) l i) (assign_107_18_1_abs0 vabs_0_f_f (select source vabs_0_f_f) i i))))
(assert (forall ((i Int) (l Int) (source (Array Int Int)) (vabs_0_f_f Int)) (=> (assign_107_18_1_abs0 vabs_0_f_f (select source vabs_0_f_f) l i) (while_169_19_1_abs0 vabs_0_f_f (select source vabs_0_f_f) l 0))))
(assert (forall ((source (Array Int Int)) (l Int) (i Int) (vabs_0_f_f Int)) (=> (and (while_169_19_1_abs0 vabs_0_f_f (select source vabs_0_f_f) l i) (< i l)) (assert_142_20_12_abs0 vabs_0_f_f (select source vabs_0_f_f) l i))))
(assert (forall ((source (Array Int Int)) (l Int) (i Int) (vabs_0_f_f Int)) (=> (and (while_169_19_1_abs0 vabs_0_f_f (select source vabs_0_f_f) l i) (not (< i l))) (end_abs0 vabs_0_f_f (select source vabs_0_f_f) l i))))
(assert (forall ((k Int) (i Int) (l Int) (source (Array Int Int))) (=> (and (assert_142_20_12_abs0 k (select source k) l i) (<= 0 k) (< k l)) (not (= (select source k) 0)))))
(assert (forall ((i Int) (l Int) (source (Array Int Int)) (vabs_0_f_f Int)) (=> (assert_142_20_12_abs0 vabs_0_f_f (select source vabs_0_f_f) l i) (assert_157_21_5_abs0 vabs_0_f_f (select source vabs_0_f_f) l i))))
(assert (forall ((i Int) (l Int) (source (Array Int Int))) (=> (assert_157_21_5_abs0 i (select source i) l i) (not (= (select source i) 0)))))
(assert (forall ((i Int) (l Int) (source (Array Int Int)) (vabs_0_f_f Int)) (=> (assert_157_21_5_abs0 vabs_0_f_f (select source vabs_0_f_f) l i) (assign_166_22_5_abs0 vabs_0_f_f (select source vabs_0_f_f) l i))))
(assert (forall ((i Int) (l Int) (source (Array Int Int)) (vabs_0_f_f Int)) (=> (assign_166_22_5_abs0 vabs_0_f_f (select source vabs_0_f_f) l i) (while_169_19_1_abs0 vabs_0_f_f (select source vabs_0_f_f) l (+ i 1)))))
(check-sat)